(set-logic ALL)
(declare-fun i1 () Int)
(declare-fun it1100 () Int)
(declare-fun it15 () Int)
(declare-fun it1101 () Int)
(declare-fun it14 () Int)
(declare-fun it1102 () Int)
(declare-fun it1103 () Int)
(declare-fun it13 () Int)
(declare-fun bt1173 () Bool)
(declare-fun bt1174 () Bool)
(declare-fun bt1175 () Bool)
(declare-fun bt1176 () Bool)
(declare-fun it17 () Int)
(declare-fun it16 () Int)
(declare-fun it18 () Int)
(declare-fun bt25 () Bool)
(declare-fun bt28 () Bool)
(declare-fun bt26 () Bool)
(declare-fun bt27 () Bool)
(declare-fun it1107 () Int)
(declare-fun it1108 () Int)
(declare-fun it1109 () Int)
(declare-fun it1110 () Int)
(declare-fun bt1177 () Bool)
(declare-fun bt1178 () Bool)
(declare-fun bt1179 () Bool)
(declare-fun bt1180 () Bool)
(declare-fun it1082 () Int)
(declare-fun it1325 () Int)
(declare-fun it1326 () Int)
(declare-fun it1327 () Int)
(declare-fun it1328 () Int)
(declare-fun bt1409 () Bool)
(declare-fun bt1410 () Bool)
(declare-fun bt1411 () Bool)
(declare-fun bt1412 () Bool)
(declare-fun bt1183 () Bool)
(declare-fun it1111 () Int)
(declare-fun it1112 () Int)
(declare-fun bt1182 () Bool)
(declare-fun bt1181 () Bool)
(declare-fun bt1184 () Bool)
(declare-fun it1113 () Int)
(assert (= (+ i1 (- 1)) 0))
(assert (= (+ it1100 (- 2)) 0))
(assert (= (+ it1101 (* it15 (- 1))) 0))
(assert (= (+ it1102 (* it14 (- 1))) 0))
(assert (= (+ (* it13 (- 1)) it1103) 0))
(assert (or (not bt1173) (and false bt1173)))
(assert (or bt1174 (and false (not bt1174))))
(assert (or (not bt1175) (and false bt1175)))
(assert (or (not bt1176) (and false bt1176)))
(assert (and bt27
     (not bt26)
     (not bt28)
     (not bt25)
     (= (+ it18 (- 1)) 0)
     bt1174
     (= (+ (* it16 (- 1)) it1103) 0)
     (not bt1176)
     (= (+ it1102 (* it17 (- 1))) 0)
     (not bt1173)
     (= (+ it1100 (- 2)) 0)
     (not bt1175)))
(assert (= (+ it1107 (- 2)) 0))
(assert (= (+ (* it18 (- 1)) it1108) 0))
(assert (= (+ it1109 (* it17 (- 1))) 0))
(assert (= (+ (* it16 (- 1)) it1110) 0))
(assert (or (and bt27 bt1177) (and (not bt27) (not bt1177))))
(assert (or (and (not bt28) (not bt1178)) (and bt28 bt1178)))
(assert (or (and (not bt26) (not bt1179)) (and bt26 bt1179)))
(assert (or (and (not bt25) (not bt1180)) (and bt25 bt1180)))
(assert (let ((a!1 (+ (+ 0 it1110)
              (* (exp 2 (+ it1082 (- 1))) (+ 0 it1108) (+ 0 (- 1))))))
  (and (not bt1180)
       (not bt1178)
       (not bt1179)
       (>= (+ it1082 (- 1)) 0)
       bt1177
       (> it1109 0)
       (> (+ (* it1108 (- 1)) it1110) 0)
       (>= (+ it1107 (- 2)) 0)
       (>= (+ (* it1107 (- 1)) 2) 0)
       (> a!1 (+ 0 0)))))
(assert (= (+ it1325 (* it1107 (- 1))) 0))
(assert (= (+ (* (+ 0 it1108) (exp 2 it1082) (+ 0 (- 1))) (+ 0 it1326))
   (+ 0 0)))
(assert (= (+ it1327 (* it1109 (- 1))) 0))
(assert (= (+ it1328 (* it1110 (- 1))) 0))
(assert (or (and false (not bt1409)) bt1409))
(assert (or (not bt1410) (and false bt1410)))
(assert (or (and false bt1411) (not bt1411)))
(assert (or (and false bt1412) (not bt1412)))
(assert (let ((a!1 (and (= (+ it1328 (* it1113 (- 1))) 0)
                bt1181
                bt1182
                (= (+ it1327 (* it1112 (- 1))) 0)
                (= (+ (* it1111 (- 1)) it1326) 0)
                (not bt1183)
                bt1184))
      (a!3 (and (= (+ it1328 (* it1113 (- 1))) 0) (not bt1182)))
      (a!7 (and (= (+ it1328 (* it1113 (- 1))) 0) (not bt1184)))
      (a!14 (and (= (+ it1328 (* it1113 (- 1))) 0)
                 bt1182
                 (= (+ it1327 (* it1112 (- 1))) 0)
                 (not bt1181)
                 (= (+ (* it1111 (- 1)) it1326) 0)
                 (not bt1183)
                 bt1184)))
(let ((a!2 (or (or (or bt1410 (not bt1412)) bt1411) bt1409 (> it1326 0) a!1))
      (a!4 (and (and a!3 (not bt1184)) bt1181 (= (+ it1327 (* it1112 (- 1))) 0)))
      (a!8 (and a!7 bt1182 (= (+ it1327 (* it1112 (- 1))) 0) (not bt1181)))
      (a!10 (and a!3
                 bt1181
                 (= (+ it1327 (* it1112 (- 1))) 0)
                 (= (+ (* it1111 (- 1)) it1326) 0)
                 (not bt1183)
                 bt1184))
      (a!11 (and (and a!3 (not bt1184))
                 (= (+ it1327 (* it1112 (- 1))) 0)
                 (not bt1181)
                 (= (+ (* it1111 (- 1)) it1326) 0)))
      (a!12 (and a!7 bt1181 bt1182 (= (+ it1327 (* it1112 (- 1))) 0)))
      (a!17 (and a!3
                 (= (+ it1327 (* it1112 (- 1))) 0)
                 (not bt1181)
                 (= (+ (* it1111 (- 1)) it1326) 0)
                 (not bt1183)
                 bt1184)))
(let ((a!5 (and a!4 (= (+ (* it1111 (- 1)) it1326) 0) bt1183))
      (a!6 (and a!4 bt1183 (= (+ (* it1111 (- 1)) (* it1326 2)) 0)))
      (a!9 (and a!8 (= (+ (* it1111 (- 1)) it1326) 0)))
      (a!13 (and a!12 (= (+ (* it1111 (- 1)) (* it1326 3)) 0) bt1183))
      (a!15 (or (or (or bt1410 (not bt1412)) bt1411)
                (and a!11 (not bt1183))
                (not bt1409)))
      (a!16 (or bt1411
                (not bt1410)
                (and a!8 (= (+ it1111 (- 1)) 0) (not bt1183))
                bt1409
                bt1412))
      (a!18 (or bt1410
                a!17
                bt1411
                (> (+ it1328 (* it1326 (- 1))) 0)
                bt1412
                (not bt1409)))
      (a!19 (and a!12 (= (+ (* it1111 (- 1)) it1326) 0) (not bt1183))))
(let ((a!20 (or bt1410
                (<= (+ it1328 (* it1326 (- 1))) 0)
                bt1411
                bt1412
                a!19
                (not bt1409))))
  (and a!2
       (or (or (not bt1411) (not bt1410)) a!5 bt1412 (not bt1409))
       (or bt1410 (not bt1411) bt1409 a!6 bt1412)
       (or (or (not bt1411) (not bt1410)) bt1409 (and a!9 (not bt1183)) bt1412)
       (or (or bt1410 (not bt1412)) a!10 bt1411 bt1409 (<= it1326 0))
       (or bt1410 bt1411 bt1409 bt1412 (and a!11 (not bt1183)))
       (or bt1410 a!13 (not bt1411) bt1412 (not bt1409))
       (or (or (not bt1412) bt1411 (not bt1410)) (not bt1409) a!1)
       (= (+ it1325 (- 2)) 0)
       (or (or (not bt1412) bt1411 (not bt1410)) a!14 bt1409)
       a!15
       a!16
       (or (<= it1327 0)
           (and a!11 bt1183)
           bt1411
           (not bt1410)
           bt1412
           (not bt1409))
       (or (and a!9 bt1183)
           (> it1327 0)
           bt1411
           (not bt1410)
           bt1412
           (not bt1409))
       a!18
       a!20))))))
(check-sat)
